\ This file has been generated by DOcplex
\ ENCODING=ISO-8859-1
\Problem name: dectiger problem

Maximize
 obj: - 184.172656250000 aj_u0_x0 - 238 aj_u1_x0 - 183 aj_u2_x0 - 238 aj_u3_x0
      - 212.500000000000 aj_u4_x0 - 237.500000000000 aj_u5_x0 - 183 aj_u6_x0
      - 237.500000000000 aj_u7_x0 - 177.500000000000 aj_u8_x0
      - 186.483593750000 aj_u0_x1 - 183 aj_u1_x1 - 238 aj_u2_x1 - 183 aj_u3_x1
      - 177.500000000000 aj_u4_x1 - 237.500000000000 aj_u5_x1 - 238 aj_u6_x1
      - 237.500000000000 aj_u7_x1 - 212.500000000000 aj_u8_x1
Subject To
 c1: 368.345312500000 aj_u0_x0 + 476 aj_u1_x0 + 366 aj_u2_x0 + 476 aj_u3_x0
     + 425 aj_u4_x0 + 475 aj_u5_x0 + 366 aj_u6_x0 + 475 aj_u7_x0 + 355 aj_u8_x0
     - 368.345312500000 a0_u0 - 476 a0_u1 - 366 a0_u2 >= 0
 c2: 368.345312500000 aj_u0_x0 + 476 aj_u1_x0 + 366 aj_u2_x0 + 476 aj_u3_x0
     + 425 aj_u4_x0 + 475 aj_u5_x0 + 366 aj_u6_x0 + 475 aj_u7_x0 + 355 aj_u8_x0
     - 476 a0_u0 - 425 a0_u1 - 475 a0_u2 >= 0
 c3: 368.345312500000 aj_u0_x0 + 476 aj_u1_x0 + 366 aj_u2_x0 + 476 aj_u3_x0
     + 425 aj_u4_x0 + 475 aj_u5_x0 + 366 aj_u6_x0 + 475 aj_u7_x0 + 355 aj_u8_x0
     - 366 a0_u0 - 475 a0_u1 - 355 a0_u2 >= 0
 c4: 372.967187500000 aj_u0_x1 + 366 aj_u1_x1 + 476 aj_u2_x1 + 366 aj_u3_x1
     + 355 aj_u4_x1 + 475 aj_u5_x1 + 476 aj_u6_x1 + 475 aj_u7_x1 + 425 aj_u8_x1
     - 372.967187500000 a0_u0 - 366 a0_u1 - 476 a0_u2 >= 0
 c5: 372.967187500000 aj_u0_x1 + 366 aj_u1_x1 + 476 aj_u2_x1 + 366 aj_u3_x1
     + 355 aj_u4_x1 + 475 aj_u5_x1 + 476 aj_u6_x1 + 475 aj_u7_x1 + 425 aj_u8_x1
     - 366 a0_u0 - 355 a0_u1 - 475 a0_u2 >= 0
 c6: 372.967187500000 aj_u0_x1 + 366 aj_u1_x1 + 476 aj_u2_x1 + 366 aj_u3_x1
     + 355 aj_u4_x1 + 475 aj_u5_x1 + 476 aj_u6_x1 + 475 aj_u7_x1 + 425 aj_u8_x1
     - 476 a0_u0 - 475 a0_u1 - 425 a0_u2 >= 0
 c7: a0_u0 + a0_u1 + a0_u2 = 1
 c8: a1_u0_x0 + a1_u1_x0 + a1_u2_x0 = 1
 c9: aj_u0_x0 + aj_u1_x0 + aj_u2_x0 + aj_u3_x0 + aj_u4_x0 + aj_u5_x0 + aj_u6_x0
     + aj_u7_x0 + aj_u8_x0 = 1
 c10: a1_u0_x1 + a1_u1_x1 + a1_u2_x1 = 1
 c11: aj_u0_x1 + aj_u1_x1 + aj_u2_x1 + aj_u3_x1 + aj_u4_x1 + aj_u5_x1 + aj_u6_x1
      + aj_u7_x1 + aj_u8_x1 = 1
 c12: aj_u0_x0 + aj_u1_x0 + aj_u2_x0 - a0_u0 = 0
 c13: aj_u3_x0 + aj_u4_x0 + aj_u5_x0 - a0_u1 = 0
 c14: aj_u6_x0 + aj_u7_x0 + aj_u8_x0 - a0_u2 = 0
 c15: aj_u0_x1 + aj_u1_x1 + aj_u2_x1 - a0_u0 = 0
 c16: aj_u3_x1 + aj_u4_x1 + aj_u5_x1 - a0_u1 = 0
 c17: aj_u6_x1 + aj_u7_x1 + aj_u8_x1 - a0_u2 = 0
 c18: aj_u0_x0 + aj_u3_x0 + aj_u6_x0 - a1_u0_x0 = 0
 c19: aj_u1_x0 + aj_u4_x0 + aj_u7_x0 - a1_u1_x0 = 0
 c20: aj_u2_x0 + aj_u5_x0 + aj_u8_x0 - a1_u2_x0 = 0
 c21: aj_u0_x1 + aj_u3_x1 + aj_u6_x1 - a1_u0_x1 = 0
 c22: aj_u1_x1 + aj_u4_x1 + aj_u7_x1 - a1_u1_x1 = 0
 c23: aj_u2_x1 + aj_u5_x1 + aj_u8_x1 - a1_u2_x1 = 0

Bounds
       a0_u0 <= 1
       a0_u1 <= 1
       a0_u2 <= 1
 0 <= a1_u0_x0 <= 1
 0 <= a1_u1_x0 <= 1
 0 <= a1_u2_x0 <= 1
       aj_u0_x0 <= 1
       aj_u1_x0 <= 1
       aj_u2_x0 <= 1
       aj_u3_x0 <= 1
       aj_u4_x0 <= 1
       aj_u5_x0 <= 1
       aj_u6_x0 <= 1
       aj_u7_x0 <= 1
       aj_u8_x0 <= 1
 0 <= a1_u0_x1 <= 1
 0 <= a1_u1_x1 <= 1
 0 <= a1_u2_x1 <= 1
       aj_u0_x1 <= 1
       aj_u1_x1 <= 1
       aj_u2_x1 <= 1
       aj_u3_x1 <= 1
       aj_u4_x1 <= 1
       aj_u5_x1 <= 1
       aj_u6_x1 <= 1
       aj_u7_x1 <= 1
       aj_u8_x1 <= 1

Binaries
 a1_u0_x0 a1_u1_x0 a1_u2_x0 a1_u0_x1 a1_u1_x1 a1_u2_x1
End
